\ Model pbUFLPnldep_5_5_grb.lp
\ LP format - for model browsing. Use MPS format to capture full model detail.
Minimize
  __pwl(w(1)) + __pwl(w(2)) + __pwl(w(3)) + __pwl(w(4)) + __pwl(w(5))
   + 260 x(1,1) + 239 x(1,2) + 418 x(1,3) + 557 x(1,4) + 346 x(1,5)
   + 161 x(2,1) + 288 x(2,2) + 568 x(2,3) + 379 x(2,4) + 392 x(2,5)
   + 672 x(3,1) + 268 x(3,2) + 122 x(3,3) + 295 x(3,4) + 344 x(3,5)
   + 143 x(4,1) + 393 x(4,2) + 29 x(4,3) + 656 x(4,4) + 654 x(4,5)
   + 235 x(5,1) + 329 x(5,2) + 640 x(5,3) + 517 x(5,4) + 329 x(5,5)
Subject To
 R0: x(1,1) + x(2,1) + x(3,1) + x(4,1) + x(5,1) = 1
 R1: - y(1) + x(1,1) <= 0
 R2: - y(2) + x(2,1) <= 0
 R3: - y(3) + x(3,1) <= 0
 R4: - y(4) + x(4,1) <= 0
 R5: - y(5) + x(5,1) <= 0
 R6: x(1,2) + x(2,2) + x(3,2) + x(4,2) + x(5,2) = 1
 R7: - y(1) + x(1,2) <= 0
 R8: - y(2) + x(2,2) <= 0
 R9: - y(3) + x(3,2) <= 0
 R10: - y(4) + x(4,2) <= 0
 R11: - y(5) + x(5,2) <= 0
 R12: x(1,3) + x(2,3) + x(3,3) + x(4,3) + x(5,3) = 1
 R13: - y(1) + x(1,3) <= 0
 R14: - y(2) + x(2,3) <= 0
 R15: - y(3) + x(3,3) <= 0
 R16: - y(4) + x(4,3) <= 0
 R17: - y(5) + x(5,3) <= 0
 R18: x(1,4) + x(2,4) + x(3,4) + x(4,4) + x(5,4) = 1
 R19: - y(1) + x(1,4) <= 0
 R20: - y(2) + x(2,4) <= 0
 R21: - y(3) + x(3,4) <= 0
 R22: - y(4) + x(4,4) <= 0
 R23: - y(5) + x(5,4) <= 0
 R24: x(1,5) + x(2,5) + x(3,5) + x(4,5) + x(5,5) = 1
 R25: - y(1) + x(1,5) <= 0
 R26: - y(2) + x(2,5) <= 0
 R27: - y(3) + x(3,5) <= 0
 R28: - y(4) + x(4,5) <= 0
 R29: - y(5) + x(5,5) <= 0
 R30: w(1) - 49 x(1,1) - 29 x(1,2) - 23 x(1,3) - 40 x(1,4) - 18 x(1,5) = 0
 R31: w(2) - 49 x(2,1) - 29 x(2,2) - 23 x(2,3) - 40 x(2,4) - 18 x(2,5) = 0
 R32: w(3) - 49 x(3,1) - 29 x(3,2) - 23 x(3,3) - 40 x(3,4) - 18 x(3,5) = 0
 R33: w(4) - 49 x(4,1) - 29 x(4,2) - 23 x(4,3) - 40 x(4,4) - 18 x(4,5) = 0
 R34: w(5) - 49 x(5,1) - 29 x(5,2) - 23 x(5,3) - 40 x(5,4) - 18 x(5,5) = 0
Bounds
 y(1) free
 y(2) free
 y(3) free
 y(4) free
 y(5) free
Binaries
 y(1) y(2) y(3) y(4) y(5)
PWLObj
 w(1): (0, 0) (0, 0) (0, 3.004393876805346) 
  (3.867311666138778, 8.499463043796517) 
  (3.867311666138778, 8.49946304546669) 
  (6.512877260476594, 14.64514836292242) 
  (6.512877260476594, 12.81467756100208) 
  (12.83423338422772, 32.22261633389489) 
  (12.83423338422772, 32.02132829109924) 
  (50.45846010870806, 161.6093845295208) 
  (50.45846010870806, 161.6093845295208) 
  (74.13605266743036, 175.4542143396453) 
  (74.13605266743036, 147.005240116543) (159, 287.6706145518264)
 w(2): (0, 0) (0, 0) (0, 2.062026095861013) 
  (12.83423338422764, 20.78160820457984) 
  (12.83423338422764, 27.70882061562109) 
  (74.13605266743031, 158.2397405725701) 
  (74.13605266743031, 155.7672239709915) 
  (97.79276769075099, 161.1594287753265) 
  (97.79276769075099, 163.0779936199844) 
  (105.314979196414, 171.9538586249398) 
  (105.314979196414, 171.9538586249398) 
  (111.2638656956893, 183.2892884002596) 
  (111.2638656956893, 182.1021345527553) 
  (123.651162960413, 214.8075680910718) 
  (123.651162960413, 216.4601147819962) 
  (148.0545440008036, 294.0609354638917) 
  (148.0545440008036, 294.0609354638917) (159, 313.5771847505427)
 w(3): (0, 0) (0, 0) (0, 4.137198125436871) 
  (3.867311666138722, 11.70417861768686) 
  (3.867311666138722, 11.70417861998678) 
  (6.512877260476576, 20.1670895489423) 
  (6.512877260476576, 20.00980449213414) 
  (9.22649280349674, 29.43308563374097) 
  (9.22649280349674, 29.43308563374093) 
  (12.83423338422773, 44.12885598885068) 
  (12.83423338422773, 44.47530442762165) 
  (74.13605266743036, 253.9899020655265) 
  (74.13605266743036, 238.1154793149958) 
  (111.2638656956894, 276.1807658773292) 
  (111.2638656956894, 285.7018356909404) (159, 495.3342598271022)
 w(4): (0, 0) (0, 0) (0, 3.309748892719587) 
  (12.83423338422773, 33.35646667231953) 
  (12.83423338422773, 43.78036601398805) 
  (21.43209713071181, 85.51755899878079) 
  (21.43209713071181, 86.87499322905927) 
  (40.35216556934297, 184.6608487435963) 
  (40.35216556934297, 184.6608487435963) 
  (50.45846010870806, 220.1307313947302) 
  (50.45846010870806, 222.544070499668) 
  (74.13605266743036, 241.6090820414786) 
  (74.13605266743036, 238.1154793149958) 
  (111.2638656956894, 276.1807658773292) 
  (111.2638656956894, 285.7018356909404) (159, 495.3342598271022)
 w(5): (0, 0) (0, 0) (0, 4.761061334828145) 
  (3.867311666138697, 13.46909444098878) 
  (3.867311666138697, 13.46909444363554) 
  (6.512877260476645, 23.20815860791002) 
  (6.512877260476645, 22.48320727620919) 
  (12.83423338422779, 49.61805525404155) 
  (12.83423338422779, 51.18189795242215) 
  (74.13605266743039, 292.2899666627089) 
  (74.13605266743039, 232.9591236819533) (159, 455.8714656832217)
End
